num_offers = 20;
num_halls = 10;
start=[32,46,47,11,52,46,18,44,13,11,12,6,33,17,14,19,12,22,20,8];
end=[69,51,69,82,81,59,81,68,16,51,17,61,86,84,37,72,86,62,87,76];
price=[2590,430,684,805,2485,1006,2532,1580,165,2910,364,2827,2683,4337,1146,3456,4486,968,4198,6437];
requirement=[265,723,375,323,429,825,238,791,568,278,669,663,791,626,490,290,620,959,612,325];
capacity=[897,595,975,901,883,572,976,322,921,689];
